# Solution for model GasLib-40
# Objective value = 4.7935654543068878e+01
loadshed[innode_1] 0
loadshed[innode_2] 0
loadshed[innode_3] 0
loadshed[innode_4] 0
loadshed[innode_5] 0
loadshed[innode_6] 0
loadshed[innode_7] 0
loadshed[innode_8] 0
loadshed[source_1] -0.0926301591127936
loadshed[source_2] 6.6671489330032419e-02
loadshed[source_3] 3.2917563680235640e-01
loadshed[sink_1] 4.9364979293977096e-02
loadshed[sink_2] 0
loadshed[sink_3] 0
loadshed[sink_4] 0
loadshed[sink_5] 0
loadshed[sink_6] 0
loadshed[sink_7] 0
loadshed[sink_8] 0
loadshed[sink_9] 0
loadshed[sink_10] 0
loadshed[sink_11] 0
loadshed[sink_12] 1
loadshed[sink_13] 0
loadshed[sink_14] 0
loadshed[sink_15] 0
loadshed[sink_16] 0
loadshed[sink_17] 0
loadshed[sink_18] 0
loadshed[sink_19] 0
loadshed[sink_20] 0
loadshed[sink_21] 1
loadshed[sink_22] 0
loadshed[sink_23] 0
loadshed[sink_24] 8.8173236856246351e-01
loadshed[sink_25] 0
loadshed[sink_26] 0
loadshed[sink_27] 0
loadshed[sink_28] 0
loadshed[sink_29] 0
flow[source_1,sink_3] 1.7273420536251905e+02
flow[innode_1,sink_16] 1.6354166666666970e+01
flow[innode_6,sink_13] 8.4283567486510762e+00
flow[sink_13,sink_14] -7.9258099180155916e+00
flow[sink_14,sink_10] -2.4279976584682259e+01
flow[sink_25,sink_26] 0
flow[sink_26,sink_9] 6.7012248699656084e+01
flow[sink_9,sink_18] 5.0658082032989412e+01
flow[sink_26,sink_4] -8.3366415366322741e+01
flow[sink_4,sink_20] -1.0337492789145220e+02
flow[sink_18,sink_6] 3.4303915366322741e+01
flow[sink_25,innode_8] -1.4002587202918269e+02
flow[sink_6,sink_7] -1.3951261534806974e+01
flow[sink_6,sink_22] 3.1901010234463087e+01
flow[sink_7,sink_24] 1.9341685558013801e+00
flow[sink_22,sink_1] 1.5546843567796419e+01
flow[sink_24,sink_21] 0
flow[sink_21,sink_12] 0
flow[sink_7,sink_5] -3.2239596757275024e+01
flow[sink_5,sink_17] -4.8593763423941681e+01
flow[sink_17,sink_4] -3.6543458584627784e+00
flow[sink_17,sink_8] -6.1293584232145534e+01
flow[sink_3,sink_23] 16.3541666666697
flow[sink_8,sink_20] -77.6477508988122
flow[sink_25,sink_20] 1.9737684545693105e+02
flow[sink_25,sink_15] -8.2133496843066908e+01
flow[sink_15,sink_29] -5.5803371283046886e+01
flow[sink_29,sink_28] 1.6354166666667879e+01
flow[sink_29,sink_2] 5.9038458893353358e+01
flow[sink_2,sink_15] 4.2684292226686694e+01
flow[sink_29,innode_7] -1.4755016350973480e+02
flow[innode_4,sink_19] 0
flow[sink_19,innode_3] 3.5790818994899730e+01
flow[innode_4,innode_5] 1.0605080991801636e+02
flow[sink_27,innode_5] -1.0605080991801636e+02
flow[sink_27,sink_19] 8.9696643251349684e+01
flow[sink_10,sink_11] 3.2708333333333641e+01
flow[sink_10,innode_2] -3.7551657589782835e+01
flow[sink_10,innode_3] -3.5790818994899730e+01
flow[innode_6,sink_25] -8.4283567486510762e+00
flow[sink_11,innode_1] 1.6354166666666970e+01
flow[sink_19,innode_2] 3.7551657589782835e+01
flow[source_3,innode_4] 1.0605080991801636e+02
flow[source_2,innode_7] 1.4755016350973480e+02
flow[sink_3,innode_8] 1.4002587202918269e+02
pressure[innode_1] 75.997995343442
pressure[innode_2] 78.1344568480909
pressure[innode_3] 78.0552021322973
pressure[innode_4] 81.01325
pressure[innode_5] 8.0940302660861860e+01
pressure[innode_6] 7.5033568061490115e+01
pressure[innode_7] 81.01325
pressure[innode_8] 8.0435865538331313e+01
pressure[source_1] 81.01325
pressure[source_2] 81.01325
pressure[source_3] 81.01325
pressure[sink_1] 1.0132500000000002e+00
pressure[sink_2] 75.5713503605053
pressure[sink_3] 8.0435865538331313e+01
pressure[sink_4] 2.0395466234759198e+01
pressure[sink_5] 1.6635925056608674e+01
pressure[sink_6] 3.0362113131784767e+00
pressure[sink_7] 3.2277288792770311e+00
pressure[sink_8] 2.2568575355776744e+01
pressure[sink_9] 5.7851883846426189e+00
pressure[sink_10] 7.6149696651045545e+01
pressure[sink_11] 75.997995343442
pressure[sink_12] 1.01325
pressure[sink_13] 7.4987103939244065e+01
pressure[sink_14] 7.5001287851222060e+01
pressure[sink_15] 7.5431995553851650e+01
pressure[sink_16] 7.4976345508624320e+01
pressure[sink_17] 2.0255809185881741e+01
pressure[sink_18] 3.9522279896377395e+00
pressure[sink_19] 78.1344568480909
pressure[sink_20] 2.7979531612057293e+01
pressure[sink_21] 1.01325
pressure[sink_22] 2.0245062006690651e+00
pressure[sink_23] 8.0271147526671513e+01
pressure[sink_24] 1.01325
pressure[sink_25] 7.5033568061490115e+01
pressure[sink_26] 9.7960444231699686e+00
pressure[sink_27] 8.0060276899368560e+01
pressure[sink_28] 7.6771578879598863e+01
pressure[sink_29] 7.7066861153216053e+01
interdiction[source_1,sink_3] 0
interdiction[innode_1,sink_16] 0
interdiction[innode_6,sink_13] 0
interdiction[sink_13,sink_14] 0
interdiction[sink_14,sink_10] 0
interdiction[sink_25,sink_26] 1
interdiction[sink_26,sink_9] 0
interdiction[sink_9,sink_18] 0
interdiction[sink_26,sink_4] 0
interdiction[sink_4,sink_20] 0
interdiction[sink_18,sink_6] 0
interdiction[sink_25,innode_8] 0
interdiction[sink_6,sink_7] 0
interdiction[sink_6,sink_22] 0
interdiction[sink_7,sink_24] 0
interdiction[sink_22,sink_1] 0
interdiction[sink_24,sink_21] 0
interdiction[sink_21,sink_12] 0
interdiction[sink_7,sink_5] 0
interdiction[sink_5,sink_17] 0
interdiction[sink_17,sink_4] 0
interdiction[sink_17,sink_8] 0
interdiction[sink_3,sink_23] 0
interdiction[sink_8,sink_20] 0
interdiction[sink_25,sink_20] 0
interdiction[sink_25,sink_15] 0
interdiction[sink_15,sink_29] 0
interdiction[sink_29,sink_28] 0
interdiction[sink_29,sink_2] 0
interdiction[sink_2,sink_15] 0
interdiction[sink_29,innode_7] 0
interdiction[innode_4,sink_19] 1
interdiction[sink_19,innode_3] 0
interdiction[innode_4,innode_5] 0
interdiction[sink_27,innode_5] 0
interdiction[sink_27,sink_19] 0
interdiction[sink_10,sink_11] 0
interdiction[sink_10,innode_2] 0
interdiction[sink_10,innode_3] 0
interdiction[innode_6,sink_25] 0
interdiction[sink_11,innode_1] 0
interdiction[sink_19,innode_2] 0
interdiction[source_3,innode_4] 0
interdiction[source_2,innode_7] 0
interdiction[sink_3,innode_8] 0
WCcheckFlow[source_1,sink_3] 39
WCcheckFlow[innode_1,sink_16] 1
WCcheckFlow[innode_6,sink_13] 13
WCcheckFlow[sink_13,sink_14] 12
WCcheckFlow[sink_14,sink_10] 11
WCcheckFlow[sink_25,sink_26] 0
WCcheckFlow[sink_26,sink_9] 12
WCcheckFlow[sink_9,sink_18] 11
WCcheckFlow[sink_26,sink_4] -13
WCcheckFlow[sink_4,sink_20] -14
WCcheckFlow[sink_18,sink_6] 10
WCcheckFlow[sink_25,innode_8] -36
WCcheckFlow[sink_6,sink_7] 7
WCcheckFlow[sink_6,sink_22] 2
WCcheckFlow[sink_7,sink_24] 3
WCcheckFlow[sink_22,sink_1] 1
WCcheckFlow[sink_24,sink_21] 2
WCcheckFlow[sink_21,sink_12] 1
WCcheckFlow[sink_7,sink_5] 3
WCcheckFlow[sink_5,sink_17] 2
WCcheckFlow[sink_17,sink_4] 0
WCcheckFlow[sink_17,sink_8] 1
WCcheckFlow[sink_3,sink_23] 1
WCcheckFlow[sink_8,sink_20] 0
WCcheckFlow[sink_25,sink_20] 15
WCcheckFlow[sink_25,sink_15] 6
WCcheckFlow[sink_15,sink_29] 5
WCcheckFlow[sink_29,sink_28] 1
WCcheckFlow[sink_29,sink_2] 1
WCcheckFlow[sink_2,sink_15] 0
WCcheckFlow[sink_29,innode_7] 2
WCcheckFlow[innode_4,sink_19] 0
WCcheckFlow[sink_19,innode_3] -5
WCcheckFlow[innode_4,innode_5] -2
WCcheckFlow[sink_27,innode_5] 3
WCcheckFlow[sink_27,sink_19] -4
WCcheckFlow[sink_10,sink_11] 3
WCcheckFlow[sink_10,innode_2] 1
WCcheckFlow[sink_10,innode_3] 6
WCcheckFlow[innode_6,sink_25] -14
WCcheckFlow[sink_11,innode_1] 2
WCcheckFlow[sink_19,innode_2] 0
WCcheckFlow[source_3,innode_4] -1
WCcheckFlow[source_2,innode_7] -1
WCcheckFlow[sink_3,innode_8] 37
